

******************************************************************************
This program contains Ipopt, a library for large-scale nonlinear optimization.
 Ipopt is released as open source code under the Eclipse Public License (EPL).
         For more information visit http://projects.coin-or.org/Ipopt
******************************************************************************

This is Ipopt version 3.12.8, running with linear solver mumps.
NOTE: Other linear solvers might be more efficient (see Ipopt documentation).

Number of nonzeros in equality constraint Jacobian...:        0
Number of nonzeros in inequality constraint Jacobian.:        2
Number of nonzeros in Lagrangian Hessian.............:        2

Total number of variables............................:        2
                     variables with only lower bounds:        2
                variables with lower and upper bounds:        0
                     variables with only upper bounds:        0
Total number of equality constraints.................:        0
Total number of inequality constraints...............:        1
        inequality constraints with only lower bounds:        1
   inequality constraints with lower and upper bounds:        0
        inequality constraints with only upper bounds:        0

iter    objective    inf_pr   inf_du lg(mu)  ||d||  lg(rg) alpha_du alpha_pr  ls
   0  3.9602000e+00 0.00e+00 5.81e-01  -1.0 0.00e+00    -  0.00e+00 0.00e+00   0
   1  3.7346762e+00 0.00e+00 3.31e+00  -1.7 1.87e-01    -  2.08e-01 1.00e+00f  1
   2  2.6616551e+00 0.00e+00 2.37e+00  -1.7 1.28e+00    -  1.00e+00 5.97e-01f  1
   3  2.0688203e+00 0.00e+00 1.26e+00  -1.7 2.06e-01    -  7.53e-01 9.36e-01f  1
   4  1.7497653e+00 0.00e+00 8.64e-01  -1.7 1.34e-01    -  1.00e+00 8.59e-01f  1
   5  1.5531631e+00 0.00e+00 1.59e+00  -1.7 1.05e-01    -  1.00e+00 7.27e-01f  1
   6  1.3807088e+00 0.00e+00 6.40e-01  -1.7 7.12e-02    -  1.00e+00 1.00e+00f  1
   7  1.2836223e+00 0.00e+00 4.27e+00  -1.7 5.54e-02    -  1.00e+00 7.59e-01f  1
   8  1.2146751e+00 0.00e+00 4.44e-01  -1.7 3.08e-02    -  1.00e+00 1.00e+00f  1
   9  1.1585059e+00 0.00e+00 6.27e+00  -1.7 2.99e-02    -  1.00e+00 8.63e-01h  1
iter    objective    inf_pr   inf_du lg(mu)  ||d||  lg(rg) alpha_du alpha_pr  ls
  10  1.1414830e+00 0.00e+00 1.44e-01  -1.7 7.94e-03    -  1.00e+00 1.00e+00f  1
  11  1.0951435e+00 0.00e+00 1.42e+02  -2.5 5.56e-02    -  1.00e+00 3.94e-01f  1
  12  1.0674483e+00 0.00e+00 5.70e-01  -2.5 1.33e-02    -  1.00e+00 1.00e+00f  1
  13  1.0575514e+00 0.00e+00 2.94e+02  -2.5 1.19e-02    -  1.00e+00 4.02e-01f  2
  14  1.0415292e+00 0.00e+00 5.16e-01  -2.5 7.82e-03    -  1.00e+00 1.00e+00f  1
  15  1.0292284e+00 0.00e+00 5.71e-01  -2.5 6.04e-03    -  1.00e+00 1.00e+00f  1
  16  1.0249368e+00 0.00e+00 2.38e-01  -2.5 2.12e-03    -  1.00e+00 1.00e+00f  1
  17  1.0170387e+00 0.00e+00 4.99e+03  -3.8 1.14e-02    -  1.00e+00 3.43e-01f  1
  18  1.0114000e+00 0.00e+00 6.93e-01  -3.8 2.80e-03    -  1.00e+00 1.00e+00f  1
  19  1.0083372e+00 0.00e+00 5.59e+03  -3.8 2.22e-03    -  1.00e+00 6.85e-01f  1
iter    objective    inf_pr   inf_du lg(mu)  ||d||  lg(rg) alpha_du alpha_pr  ls
  20  1.0051513e+00 0.00e+00 8.48e-01  -3.8 1.59e-03    -  1.00e+00 1.00e+00f  1
  21  1.0042857e+00 0.00e+00 1.59e+05  -3.8 3.13e-03    -  1.00e+00 1.38e-01f  2
  22  1.0001056e+00 0.00e+00 1.03e+04  -3.8 2.18e-03    -  1.00e+00 9.56e-01f  1
  23  2.3898944e-01 3.30e+00 4.40e+09  -3.8 1.49e+00   2.0 4.78e-04 1.00e+00f  1
  24  3.9173280e-03 1.01e+00 1.30e+09  -3.8 5.07e-01    -  1.06e-07 1.00e+00f  1
  25  7.5866977e-03 8.46e-01 7.47e+08  -3.8 3.07e-01   9.8 1.00e+00 1.77e-01h  1
  26  7.5886525e-03 8.46e-01 7.47e+08  -3.8 3.00e-01   9.4 1.00e+00 4.88e-05h  1
  27  2.5909779e-01 3.65e-01 1.26e+08  -3.8 3.91e-01   8.9 9.33e-06 1.00e+00h  1
  28  2.5911411e-01 3.65e-01 1.26e+08  -3.8 1.34e-01   9.3 1.00e+00 2.28e-04h  1
  29r 2.5911411e-01 3.65e-01 9.99e+02  -0.4 0.00e+00   8.8 0.00e+00 2.74e-07R  6
iter    objective    inf_pr   inf_du lg(mu)  ||d||  lg(rg) alpha_du alpha_pr  ls
  30r 4.8439626e-01 7.70e-02 9.61e+01  -0.4 3.30e+02    -  1.00e+00 1.10e-03f  1
  31  3.3015017e-01 7.70e-02 1.10e+00  -3.8 6.31e-01    -  1.00e+00 1.90e-01f  1
  32  3.6755297e-01 6.17e-02 2.06e+00  -3.8 1.46e-01    -  1.00e+00 2.17e-01h  1
  33  5.0592052e-01 2.41e-02 6.67e-01  -3.8 1.31e-01    -  1.00e+00 8.02e-01h  1
  34  6.0767159e-01 1.07e-02 1.59e+00  -3.8 9.63e-02    -  1.00e+00 7.09e-01h  1
  35  6.9758792e-01 4.47e-03 2.29e+00  -3.8 7.35e-02    -  1.00e+00 7.57e-01h  1
  36  7.7439065e-01 1.74e-03 3.20e+00  -3.8 5.50e-02    -  1.00e+00 8.14e-01h  1
  37  8.2861438e-01 7.22e-04 8.12e+00  -3.8 4.01e-02    -  1.00e+00 7.56e-01h  1
  38  8.7563636e-01 2.67e-04 9.06e+00  -3.8 3.00e-02    -  1.00e+00 8.50e-01h  1
  39  9.0582491e-01 1.12e-04 3.06e+01  -3.8 2.15e-02    -  1.00e+00 7.45e-01h  1
iter    objective    inf_pr   inf_du lg(mu)  ||d||  lg(rg) alpha_du alpha_pr  ls
  40  9.3311470e-01 3.99e-05 2.54e+01  -3.8 1.62e-02    -  1.00e+00 8.81e-01h  1
  41  9.3361087e-01 3.90e-05 4.27e+02  -3.8 1.14e-02    -  1.00e+00 2.26e-02f  6
  42  9.5567921e-01 1.14e-05 6.97e-01  -3.8 1.14e-02    -  1.00e+00 1.00e+00h  1
  43  9.6733348e-01 4.46e-06 2.02e+02  -3.8 7.41e-03    -  1.00e+00 8.02e-01h  1
  44  9.6802866e-01 4.18e-06 1.79e+03  -3.8 5.65e-03    -  1.00e+00 6.25e-02f  5
  45  9.7878909e-01 1.23e-06 7.03e-01  -3.8 5.45e-03    -  1.00e+00 1.00e+00h  1
  46  9.8427538e-01 4.72e-07 8.74e+02  -3.8 3.44e-03    -  1.00e+00 8.05e-01h  1
  47  9.8562415e-01 3.60e-07 6.27e+03  -3.8 2.72e-03    -  1.00e+00 2.50e-01f  3
  48  9.9036884e-01 1.01e-07 6.62e-01  -3.8 2.39e-03    -  1.00e+00 1.00e+00h  1
  49  9.9267436e-01 2.94e-08 2.08e+03  -3.8 1.29e-03    -  1.00e+00 8.94e-01h  1
iter    objective    inf_pr   inf_du lg(mu)  ||d||  lg(rg) alpha_du alpha_pr  ls
  50  9.9450841e-01 4.65e-09 4.58e-01  -3.8 9.20e-04    -  1.00e+00 1.00e+00f  1
  51  9.9442585e-01 1.74e-09 3.57e+03  -5.7 5.19e-05    -  1.00e+00 7.98e-01h  1
  52  9.9443536e-01 1.63e-09 7.51e+03  -5.7 7.63e-05    -  1.00e+00 6.25e-02f  5
  53  9.9457839e-01 2.21e-11 7.69e-03  -5.7 7.17e-05    -  1.00e+00 1.00e+00h  1
  54  9.9457852e-01 1.09e-13 8.99e-01  -8.6 6.51e-08    -  1.00e+00 9.97e-01h  1
  55  9.9457854e-01 0.00e+00 1.54e-10  -8.6 7.44e-09    -  1.00e+00 1.00e+00f  1

Number of Iterations....: 55

                                   (scaled)                 (unscaled)
Objective...............:   9.9457853784159711e-01    9.9457853784159711e-01
Dual infeasibility......:   1.5443854795149185e-10    1.5443854795149185e-10
Constraint violation....:   0.0000000000000000e+00    0.0000000000000000e+00
Complementarity.........:   2.5059174682145588e-09    2.5059174682145588e-09
Overall NLP error.......:   4.1656450924390103e-12    2.5059174682145588e-09


Number of objective function evaluations             = 79
Number of objective gradient evaluations             = 56
Number of equality constraint evaluations            = 0
Number of inequality constraint evaluations          = 79
Number of equality constraint Jacobian evaluations   = 0
Number of inequality constraint Jacobian evaluations = 57
Number of Lagrangian Hessian evaluations             = 55
Total CPU secs in IPOPT (w/o function evaluations)   =      0.007
Total CPU secs in NLP function evaluations           =      0.000

EXIT: Optimal Solution Found.
 
Ipopt 3.12.8: Optimal Solution Found
